Version identifier: 20.1.0.0 | 2020-11-10 | 9bedb6d68
Tried aggregator 2 times.
MIP Presolve eliminated 959 rows and 536 columns.
MIP Presolve modified 2360 coefficients.
Aggregator did 111 substitutions.
Reduced MIP has 1339 rows, 1018 columns, and 4397 nonzeros.
Reduced MIP has 167 binaries, 851 generals, 0 SOSs, and 0 indicators.
Presolve time = 0.01 sec. (5.56 ticks)
Found incumbent of value 2022.000000 after 0.02 sec. (11.24 ticks)
Probing fixed 30 vars, tightened 321 bounds.
Probing time = 0.00 sec. (0.87 ticks)
Tried aggregator 1 time.
Detecting symmetries...
MIP Presolve eliminated 585 rows and 30 columns.
MIP Presolve modified 63 coefficients.
Reduced MIP has 754 rows, 988 columns, and 2462 nonzeros.
Reduced MIP has 217 binaries, 771 generals, 0 SOSs, and 0 indicators.
Presolve time = 0.01 sec. (2.66 ticks)
Probing time = 0.00 sec. (0.18 ticks)
Clique table members: 5.
MIP emphasis: balance optimality and feasibility.
MIP search method: dynamic search.
Parallel mode: deterministic, using up to 24 threads.
Root relaxation solution time = 0.00 sec. (2.49 ticks)

        Nodes                                         Cuts/
   Node  Left     Objective  IInf  Best Integer    Best Bound    ItCnt     Gap

*     0+    0                         2022.0000        0.0000           100.00%
      0     0        0.0000    47     2022.0000        0.0000      267  100.00%
*     0+    0                           11.0000        0.0000           100.00%
      0     0        0.0000    79       11.0000     Cuts: 108      383  100.00%
      0     0        0.0000    31       11.0000      Cuts: 53      553  100.00%
      0     0        0.1474   240       11.0000      Cuts: 74      684   98.66%
      0     0        0.5714   178       11.0000      Cuts: 67      758   94.81%
      0     0        0.5714   240       11.0000      Cuts: 62      825   94.81%
*     0+    0                           10.0000        0.5714            94.29%
*     0+    0                            7.0000        0.5714            91.84%
      0     0        cutoff              7.0000        7.0000      825    0.00%
Elapsed time = 0.52 sec. (85.72 ticks, tree = 0.01 MB, solutions = 4)

Implied bound cuts applied:  33
Flow cuts applied:  2
Mixed integer rounding cuts applied:  3
Zero-half cuts applied:  58
Lift and project cuts applied:  2
Gomory fractional cuts applied:  6

Root node processing (before b&c):
  Real time             =    0.52 sec. (85.82 ticks)
Parallel b&c, 24 threads:
  Real time             =    0.00 sec. (0.00 ticks)
  Sync time (average)   =    0.00 sec.
  Wait time (average)   =    0.00 sec.
                          ------------
Total (root+branch&cut) =    0.52 sec. (85.82 ticks)

Solution status = Optimal
Solution LB = 7
Solution UB = 7
Runtime = 0.525738 seconds
	Command being timed: "/home/min/git_repos/CS598MEBProject/CNT-ILP/build/cnt -s 2 ./output/k8_n15/simC_c1_k8_n15_u2_s1_del02.input-right.cnp"
	User time (seconds): 8.12
	System time (seconds): 0.07
	Percent of CPU this job got: 1506%
	Elapsed (wall clock) time (h:mm:ss or m:ss): 0:00.54
	Average shared text size (kbytes): 0
	Average unshared data size (kbytes): 0
	Average stack size (kbytes): 0
	Average total size (kbytes): 0
	Maximum resident set size (kbytes): 68408
	Average resident set size (kbytes): 0
	Major (requiring I/O) page faults: 0
	Minor (reclaiming a frame) page faults: 14221
	Voluntary context switches: 4097
	Involuntary context switches: 1443
	Swaps: 0
	File system inputs: 0
	File system outputs: 16
	Socket messages sent: 0
	Socket messages received: 0
	Signals delivered: 0
	Page size (bytes): 4096
	Exit status: 0
